(set-logic ALL)
(declare-const input_string_VAR String)
(assert (< (- (str.len input_string_VAR) 1) 0))
(assert (< (+ (- (str.len input_string_VAR) 1) (str.len input_string_VAR)) 0))
(assert (not (< 0 (str.len input_string_VAR))))
(assert (not (> (str.len input_string_VAR) (- 1))))
(check-sat)
(get-value (input_string_VAR))
